webassembly/ejemplos_dzn/folder7_json_32.dzn
TERM = { '.', 's(2)', 'in_1', 'local_0', 'local_1', 'in_2', 'in_4', 'in_3', 's(1)', 's(0)', 'in_5', 's(3)', 'in_0'};
null = '.';
s = 7;
n = 11;
ndeps = 4;
max_registers_sz = 5;
NR = 2;
registers = [|'local_0', 's(0)', |'local_1', 'in_0'|];
dependencies = [|'i32.load16_u_1', 'i32.store8_3', |'i32.store8_3', 'i32.store16_4', |'i32.store16_4', 'call[function_index(0)]_5', |'call[function_index(0)]_5', 'i32.store16_6'|];
GET_ENUM = { GET1, GET2, GET3, GET4, GET5, GET6, GET7};
SET_ENUM = { SET1, SET2, SET3, SET4, SET5, SET6, SET7};
TEE_ENUM = { TEE1, TEE2, TEE3, TEE4, TEE5, TEE6, TEE7};
N = 5;
OP = { 'call[function_index(0)]_5', 'i32.load16_u_1', 'i32.store8_3', 'i32.store16_4', 'i32.store16_6' };
in_ops = [1, 1, 2, 2, 2 ];
out_ops = [3, 1, 0, 0, 0 ];
in1 = ['in_5', 'in_0', 'in_1', 'in_3', 's(3)' ];
in2 = ['.', '.', 'in_2', 'in_4', 's(2)' ];
in3 = ['.', '.', '.', '.', '.' ];
out1 = ['s(3)', 's(0)', '.', '.', '.' ];
out2 = ['s(2)', '.', '.', '.', '.' ];
out3 = ['s(1)', '.', '.', '.', '.' ];
comm = [false, false, false, false, false ];
gas = [1, 1, 1, 1, 1 ];
sz = [1, 1, 1, 1, 1 ];
stor = [true, false, true, true, true ];
lb = [ 1, 1, 1, 1, 1 ];
ub = [ 7, 7, 7, 7, 7 ];
startstack = [ 'in_0', 'in_1', 'in_2', 'in_3', 'in_4', 'in_5', null, null, null, null, null ];
endstack = [ 's(1)', null, null, null, null, null, null, null, null, null, null ];
